n 32
m 4
tmax 18.8
 10.5 14.4    0    0    1    0    1
   18 15.9   10    1    1    1    0
 18.3 13.3   10    1    0    0    0
 16.5  9.3   10    1    1    1    1
 15.4   11   10    0    1    1    0
 14.9 13.2    5    1    1    0    1
 16.3 13.3    5    1    1    0    0
 16.4 17.8    5    1    1    0    0
   15 17.9    5    0    1    0    0
 16.1 19.6   10    1    0    1    0
 15.7 20.6   10    0    1    0    1
 13.2 20.1   10    0    1    1    1
 14.3 15.3    5    1    1    0    0
   14  5.1   10    0    1    1    1
 11.4  6.7   15    1    1    0    1
  8.3    5   15    0    1    0    0
  7.9  9.8   10    1    1    1    1
 11.4   12    5    0    1    0    1
 11.2 17.6    5    1    0    1    0
 10.1 18.7    5    1    0    1    0
 11.7 20.3   10    0    1    1    1
 10.2 22.1   10    0    1    0    1
  9.7 23.8   10    1    1    1    0
 10.1 26.4   15    1    1    0    1
  7.4   24   15    1    1    0    1
  8.2 19.9   15    1    1    0    0
  8.7 17.7   10    0    1    0    0
  8.9 13.6   10    1    0    0    1
  5.6 11.1   10    1    0    1    0
  4.9 18.9   10    0    1    1    0
  7.3 18.8   10    1    1    0    1
 11.2 14.1    0    1    0    1    1
